
Log started (V12.6.3.0) Tue Jun  6 14:39:03 2017

New value for default parallel thread count: 1

Problem '/tmp/tmpGCENfM.pyomo.lp' read.
Read time = 0.00 sec. (0.09 ticks)

Problem name         : /tmp/tmpGCENfM.pyomo.lp
Objective sense      : Minimize
Variables            :    1002  [Nneg: 981,  Binary: 20,  General Integer: 1]
Objective nonzeros   :       1
Linear constraints   :     505  [Less: 20,  Equal: 485]
  Nonzeros           :    3401
  RHS nonzeros       :      31

Variables            : Min LB: 0.000000         Max UB: 1.000000       
Objective nonzeros   : Min   : 1.000000         Max   : 1.000000       
Linear constraints   :
  Nonzeros           : Min   : 1.000000         Max   : 909.8320       
  RHS nonzeros       : Min   : 1.000000         Max   : 1206.000       
Tried aggregator 2 times.
MIP Presolve eliminated 457 rows and 849 columns.
MIP Presolve added 1 rows and 1 columns.
Aggregator did 4 substitutions.
Reduced MIP has 45 rows, 150 columns, and 426 nonzeros.
Reduced MIP has 17 binaries, 1 generals, 0 SOSs, and 0 indicators.
Presolve time = 0.00 sec. (0.91 ticks)
Found incumbent of value 19.000000 after 0.00 sec. (1.40 ticks)
Probing fixed 1 vars, tightened 2 bounds.
Probing time = 0.00 sec. (0.04 ticks)
Tried aggregator 1 time.
MIP Presolve eliminated 1 rows and 14 columns.
Reduced MIP has 44 rows, 136 columns, and 386 nonzeros.
Reduced MIP has 15 binaries, 1 generals, 0 SOSs, and 0 indicators.
Presolve time = 0.00 sec. (0.18 ticks)
Probing time = 0.00 sec. (0.03 ticks)
Clique table members: 5.
MIP emphasis: balance optimality and feasibility.
MIP search method: dynamic search.
Parallel mode: none, using 1 thread.
Root relaxation solution time = 0.00 sec. (0.41 ticks)

        Nodes                                         Cuts/
   Node  Left     Objective  IInf  Best Integer    Best Bound    ItCnt     Gap

*     0+    0                           19.0000        5.0000            73.68%
      0     0        6.6857     6       19.0000        6.6857       89   64.81%
*     0+    0                           10.0000        6.6857            33.14%
      0     0        8.3102     7       10.0000      Cuts: 50      211   16.90%
      0     0        9.0000     6       10.0000      Cuts: 44      265   10.00%
      0     0        9.0000     2       10.0000      Cuts: 39      364   10.00%
      0     0        cutoff             10.0000        9.0000      364   10.00%
Elapsed time = 0.02 sec. (7.55 ticks, tree = 0.01 MB, solutions = 2)

Clique cuts applied:  2
Cover cuts applied:  2
Implied bound cuts applied:  5
Flow cuts applied:  8
Mixed integer rounding cuts applied:  4
Lift and project cuts applied:  1
Gomory fractional cuts applied:  1

Root node processing (before b&c):
  Real time             =    0.02 sec. (7.59 ticks)
Sequential b&c:
  Real time             =    0.00 sec. (0.01 ticks)
                          ------------
Total (root+branch&cut) =    0.02 sec. (7.60 ticks)

Solution pool: 2 solutions saved.

MIP - Integer optimal solution:  Objective =  1.0000000000e+01
Solution time =    0.02 sec.  Iterations = 364  Nodes = 0
Deterministic time = 7.60 ticks  (485.03 ticks/sec)


Incumbent solution written to file '/tmp/tmpkogQRq.cplex.sol'.

Log started (V12.6.3.0) Mon Jul 24 16:45:28 2017

New value for default parallel thread count: 1

Problem '/tmp/tmpLMfs0m.pyomo.lp' read.
Read time = 0.00 sec. (0.09 ticks)

Problem name         : /tmp/tmpLMfs0m.pyomo.lp
Objective sense      : Minimize
Variables            :    1002  [Nneg: 981,  Binary: 20,  General Integer: 1]
Objective nonzeros   :       1
Linear constraints   :     505  [Less: 20,  Equal: 485]
  Nonzeros           :    3401
  RHS nonzeros       :      31

Variables            : Min LB: 0.000000         Max UB: 1.000000       
Objective nonzeros   : Min   : 1.000000         Max   : 1.000000       
Linear constraints   :
  Nonzeros           : Min   : 1.000000         Max   : 909.8320       
  RHS nonzeros       : Min   : 1.000000         Max   : 1206.000       
Tried aggregator 2 times.
MIP Presolve eliminated 457 rows and 849 columns.
MIP Presolve added 1 rows and 1 columns.
Aggregator did 4 substitutions.
Reduced MIP has 45 rows, 150 columns, and 426 nonzeros.
Reduced MIP has 17 binaries, 1 generals, 0 SOSs, and 0 indicators.
Presolve time = 0.00 sec. (0.91 ticks)
Found incumbent of value 19.000000 after 0.00 sec. (1.40 ticks)
Probing fixed 1 vars, tightened 2 bounds.
Probing time = 0.00 sec. (0.04 ticks)
Tried aggregator 1 time.
MIP Presolve eliminated 1 rows and 14 columns.
Reduced MIP has 44 rows, 136 columns, and 386 nonzeros.
Reduced MIP has 15 binaries, 1 generals, 0 SOSs, and 0 indicators.
Presolve time = 0.00 sec. (0.18 ticks)
Probing time = 0.00 sec. (0.03 ticks)
Clique table members: 5.
MIP emphasis: balance optimality and feasibility.
MIP search method: dynamic search.
Parallel mode: none, using 1 thread.
Root relaxation solution time = 0.00 sec. (0.41 ticks)

        Nodes                                         Cuts/
   Node  Left     Objective  IInf  Best Integer    Best Bound    ItCnt     Gap

*     0+    0                           19.0000        5.0000            73.68%
      0     0        6.6857     6       19.0000        6.6857       89   64.81%
*     0+    0                           10.0000        6.6857            33.14%
      0     0        8.3102     7       10.0000      Cuts: 50      211   16.90%
      0     0        9.0000     6       10.0000      Cuts: 44      265   10.00%
      0     0        9.0000     2       10.0000      Cuts: 39      364   10.00%
      0     0        cutoff             10.0000        9.0000      364   10.00%
Elapsed time = 0.01 sec. (7.55 ticks, tree = 0.01 MB, solutions = 2)

Clique cuts applied:  2
Cover cuts applied:  2
Implied bound cuts applied:  5
Flow cuts applied:  8
Mixed integer rounding cuts applied:  4
Lift and project cuts applied:  1
Gomory fractional cuts applied:  1

Root node processing (before b&c):
  Real time             =    0.01 sec. (7.59 ticks)
Sequential b&c:
  Real time             =    0.00 sec. (0.01 ticks)
                          ------------
Total (root+branch&cut) =    0.01 sec. (7.60 ticks)

Solution pool: 2 solutions saved.

MIP - Integer optimal solution:  Objective =  1.0000000000e+01
Solution time =    0.01 sec.  Iterations = 364  Nodes = 0
Deterministic time = 7.60 ticks  (527.89 ticks/sec)


Incumbent solution written to file '/tmp/tmphIjygK.cplex.sol'.

Log started (V12.6.3.0) Mon Jul 24 16:58:14 2017

New value for default parallel thread count: 1

Problem '/tmp/tmp0EQqfC.pyomo.lp' read.
Read time = 0.00 sec. (0.09 ticks)

Problem name         : /tmp/tmp0EQqfC.pyomo.lp
Objective sense      : Minimize
Variables            :    1002  [Nneg: 981,  Binary: 20,  General Integer: 1]
Objective nonzeros   :       1
Linear constraints   :     505  [Less: 20,  Equal: 485]
  Nonzeros           :    3401
  RHS nonzeros       :      31

Variables            : Min LB: 0.000000         Max UB: 1.000000       
Objective nonzeros   : Min   : 1.000000         Max   : 1.000000       
Linear constraints   :
  Nonzeros           : Min   : 1.000000         Max   : 909.8320       
  RHS nonzeros       : Min   : 1.000000         Max   : 1206.000       
Tried aggregator 2 times.
MIP Presolve eliminated 457 rows and 849 columns.
MIP Presolve added 1 rows and 1 columns.
Aggregator did 4 substitutions.
Reduced MIP has 45 rows, 150 columns, and 426 nonzeros.
Reduced MIP has 17 binaries, 1 generals, 0 SOSs, and 0 indicators.
Presolve time = 0.00 sec. (0.91 ticks)
Found incumbent of value 19.000000 after 0.00 sec. (1.40 ticks)
Probing fixed 1 vars, tightened 2 bounds.
Probing time = 0.00 sec. (0.04 ticks)
Tried aggregator 1 time.
MIP Presolve eliminated 1 rows and 14 columns.
Reduced MIP has 44 rows, 136 columns, and 386 nonzeros.
Reduced MIP has 15 binaries, 1 generals, 0 SOSs, and 0 indicators.
Presolve time = 0.00 sec. (0.18 ticks)
Probing time = 0.00 sec. (0.03 ticks)
Clique table members: 5.
MIP emphasis: balance optimality and feasibility.
MIP search method: dynamic search.
Parallel mode: none, using 1 thread.
Root relaxation solution time = 0.00 sec. (0.41 ticks)

        Nodes                                         Cuts/
   Node  Left     Objective  IInf  Best Integer    Best Bound    ItCnt     Gap

*     0+    0                           19.0000        5.0000            73.68%
      0     0        6.6857     6       19.0000        6.6857       89   64.81%
*     0+    0                           10.0000        6.6857            33.14%
      0     0        8.3102     7       10.0000      Cuts: 50      211   16.90%
      0     0        9.0000     6       10.0000      Cuts: 44      265   10.00%
      0     0        9.0000     2       10.0000      Cuts: 39      364   10.00%
      0     0        cutoff             10.0000        9.0000      364   10.00%
Elapsed time = 0.01 sec. (7.55 ticks, tree = 0.01 MB, solutions = 2)

Clique cuts applied:  2
Cover cuts applied:  2
Implied bound cuts applied:  5
Flow cuts applied:  8
Mixed integer rounding cuts applied:  4
Lift and project cuts applied:  1
Gomory fractional cuts applied:  1

Root node processing (before b&c):
  Real time             =    0.01 sec. (7.59 ticks)
Sequential b&c:
  Real time             =    0.00 sec. (0.01 ticks)
                          ------------
Total (root+branch&cut) =    0.01 sec. (7.60 ticks)

Solution pool: 2 solutions saved.

MIP - Integer optimal solution:  Objective =  1.0000000000e+01
Solution time =    0.01 sec.  Iterations = 364  Nodes = 0
Deterministic time = 7.60 ticks  (840.11 ticks/sec)


Incumbent solution written to file '/tmp/tmp5OJoQP.cplex.sol'.

Log started (V12.6.3.0) Wed Jul 26 13:54:52 2017

New value for default parallel thread count: 1

Problem '/tmp/tmpneUrVZ.pyomo.lp' read.
Read time = 0.00 sec. (0.09 ticks)

Problem name         : /tmp/tmpneUrVZ.pyomo.lp
Objective sense      : Minimize
Variables            :    1002  [Nneg: 981,  Binary: 20,  General Integer: 1]
Objective nonzeros   :       1
Linear constraints   :     505  [Less: 20,  Equal: 485]
  Nonzeros           :    3401
  RHS nonzeros       :      31

Variables            : Min LB: 0.000000         Max UB: 1.000000       
Objective nonzeros   : Min   : 1.000000         Max   : 1.000000       
Linear constraints   :
  Nonzeros           : Min   : 1.000000         Max   : 909.8320       
  RHS nonzeros       : Min   : 1.000000         Max   : 1206.000       
Tried aggregator 2 times.
MIP Presolve eliminated 457 rows and 849 columns.
MIP Presolve added 1 rows and 1 columns.
Aggregator did 4 substitutions.
Reduced MIP has 45 rows, 150 columns, and 426 nonzeros.
Reduced MIP has 17 binaries, 1 generals, 0 SOSs, and 0 indicators.
Presolve time = 0.00 sec. (0.91 ticks)
Found incumbent of value 19.000000 after 0.00 sec. (1.40 ticks)
Probing fixed 1 vars, tightened 2 bounds.
Probing time = 0.00 sec. (0.04 ticks)
Tried aggregator 1 time.
MIP Presolve eliminated 1 rows and 14 columns.
Reduced MIP has 44 rows, 136 columns, and 386 nonzeros.
Reduced MIP has 15 binaries, 1 generals, 0 SOSs, and 0 indicators.
Presolve time = 0.00 sec. (0.18 ticks)
Probing time = 0.00 sec. (0.03 ticks)
Clique table members: 5.
MIP emphasis: balance optimality and feasibility.
MIP search method: dynamic search.
Parallel mode: none, using 1 thread.
Root relaxation solution time = 0.00 sec. (0.41 ticks)

        Nodes                                         Cuts/
   Node  Left     Objective  IInf  Best Integer    Best Bound    ItCnt     Gap

*     0+    0                           19.0000        5.0000            73.68%
      0     0        6.6857     6       19.0000        6.6857       89   64.81%
*     0+    0                           10.0000        6.6857            33.14%
      0     0        8.3102     7       10.0000      Cuts: 50      211   16.90%
      0     0        9.0000     6       10.0000      Cuts: 44      265   10.00%
      0     0        9.0000     2       10.0000      Cuts: 39      364   10.00%
      0     0        cutoff             10.0000        9.0000      364   10.00%
Elapsed time = 0.01 sec. (7.55 ticks, tree = 0.01 MB, solutions = 2)

Clique cuts applied:  2
Cover cuts applied:  2
Implied bound cuts applied:  5
Flow cuts applied:  8
Mixed integer rounding cuts applied:  4
Lift and project cuts applied:  1
Gomory fractional cuts applied:  1

Root node processing (before b&c):
  Real time             =    0.01 sec. (7.59 ticks)
Sequential b&c:
  Real time             =    0.00 sec. (0.01 ticks)
                          ------------
Total (root+branch&cut) =    0.01 sec. (7.60 ticks)

Solution pool: 2 solutions saved.

MIP - Integer optimal solution:  Objective =  1.0000000000e+01
Solution time =    0.01 sec.  Iterations = 364  Nodes = 0
Deterministic time = 7.60 ticks  (841.69 ticks/sec)


Incumbent solution written to file '/tmp/tmpxuw4BF.cplex.sol'.
